[1, 2, 4, 5, 5, 9, 6, 5, 7, 10, 11, 12, 15, 13, 14, 16, 17, 19, 18, 20, 18, 24, 15, 17, 13, 14, 30, 30, 33, 31, 29, 32, 32, 35, 37, 36, 35, 39, 40, 38, 41, 42, 41, 43, 46, 46, 55, 54, 49, 52, 51, 50, 47, 52, 53, 49, 51, 59, 62, 58, 61, 62, 62, 64, 65, 66, 67, 71, 66, 70, 71, 72, 73, 72, 78, 78, 76, 79, 79, 81, 82, 80, 82, 79, 88, 86, 87, 88, 91, 90, 89, 91, 94, 95, 94, 94, 91, 98, 99, 103, 103, 106, 104, 105, 102, 101, 109, 108, 113, 111, 107, 110, 115, 112, 114, 117, 116, 118, 119, 120, 121, 120, 122, 123, 125, 127, 121, 129, 128, 130, 130, 133, 137, 134, 133, 136, 135, 141, 142, 141, 143, 141, 142, 144, 147, 146, 147, 148, 149, 149, 142, 148, 134, 154, 155, 156, 157, 159, 160, 158, 161, 162, 163, 164, 168, 167, 167, 169, 170, 169, 170, 172, 170, 172, 173, 171, 182, 180, 181, 180, 182, 179, 183, 185, 186, 184, 185, 189, 189, 197, 198, 193, 193, 196, 194, 198, 197, 195, 196, 201, 200, 203, 206, 205, 207, 206, 207, 209, 204, 208, 213, 216, 213, 214, 213, 213, 221, 220, 218, 213, 214, 230, 228, 226, 227, 226, 227, 226, 230, 230, 231, 232, 233, 234, 235, 236, 237, 238, 240, 242, 241, 239, 246, 242, 243, 244, 241, 248, 250, 251, 249, 251, 258, 248, 254, 256, 257, 256, 261, 260, 257, 262, 263, 264, 265, 266, 267, 268, 269, 268, 271, 270, 271, 270, 267, 272, 277, 275, 279, 280]
[1, 3, 5, 6, 12, 12, 16, 16, 17, 17, 18, 19, 28, 38, 39, 41, 42, 45, 45, 46, 50, 50, 51, 51, 52, 53, 58, 60, 61, 61, 61, 64, 65, 65, 66, 70, 70, 71, 71, 75, 77, 77, 79, 85, 87, 87, 89, 93, 93, 93, 97, 98, 100, 102, 102, 104, 105, 111, 112, 113, 114, 116, 117, 122, 124, 126, 127, 128, 132, 132, 133, 133, 148, 148, 153, 155, 156, 159, 160, 162, 163, 166, 166, 169, 169, 169, 170, 171, 171, 178, 179, 179, 180, 181, 181, 185, 192, 192, 193, 194, 205, 205, 206, 206, 207, 213, 213, 217, 225, 225, 225, 229, 229, 229, 230, 231, 233, 234, 240, 240, 250, 250, 253, 255, 255, 257, 259, 261, 262, 263, 264, 276, 278, 282, 284, 287, 290, 293, 293, 295, 295, 298, 308, 308, 310, 310, 325, 327, 327, 329, 329, 330, 330, 332, 336, 339, 343, 344, 344, 345, 348, 350, 350, 351, 354, 356, 356, 357, 357, 357, 359, 364, 367, 369, 369, 369, 377, 379, 380, 381, 381, 384, 388, 389, 391, 394, 397, 398, 398, 400, 406, 407, 411, 411, 413, 414, 420, 420, 420, 421, 426, 426, 427, 427, 432, 434, 435, 441, 442, 445, 445, 450, 450, 457, 458, 458, 459, 460, 460, 461, 463, 463, 467, 467, 472, 473, 474, 474, 478, 479, 484, 484, 485, 485, 492, 492, 494, 498, 499, 505, 505, 508, 508, 508, 509, 510, 511, 513, 515, 517, 518, 519, 519, 520, 520, 522, 526, 526, 527, 528, 535, 535, 538, 540, 542, 544, 545, 545, 546, 546, 548, 548, 553, 555, 557, 559, 561, 562, 562, 562, 564, 566, 567, 569, 573, 574, 574, 576, 581, 586, 588, 589, 589, 594, 595, 596, 597, 599, 600, 606, 606, 609, 609, 610, 611, 615, 616, 618, 619, 619, 619, 621, 622, 627, 630, 637, 639, 639, 643, 644, 645, 645, 647, 656, 658, 659, 661, 662, 664, 665, 668, 669, 671, 673, 674, 677, 677, 678, 678, 680, 685, 687, 687, 692, 693, 698, 698, 698, 699, 699, 699, 701, 703, 705, 705, 712, 714, 715, 717, 718, 719, 721, 724, 724, 725, 727, 727, 727, 737, 737, 738, 739, 739, 746, 746, 752, 753, 753, 760, 763, 763, 765, 766, 777, 783, 783, 783, 785, 787, 787, 787, 788, 789, 791, 792, 797, 798, 798, 800, 805, 805, 806, 807, 811, 813, 813, 817, 818, 820, 823, 824, 824, 826, 827, 827, 828, 828, 829, 832, 836, 837, 841, 841, 841, 842, 843, 845, 848, 849, 849, 850, 850, 852, 854, 854, 860, 866, 866, 868, 868, 871, 871, 872, 875, 879, 882, 882, 885, 885, 887, 887, 888, 888, 890, 897, 902, 902, 912, 915, 915, 915, 916, 918, 918, 922, 923, 925, 927, 927, 927, 930, 930, 930, 940, 941, 942, 943, 948, 950, 954, 955, 957, 957, 958, 961, 965, 966, 966, 969, 969, 971, 972, 973, 977, 977, 977, 978, 978, 978, 980, 983, 983, 984, 984, 993, 994, 998, 999, 1004, 1005, 1005, 1007, 1008, 1008, 1009, 1015, 1016, 1016, 1017, 1020, 1021, 1021, 1030, 1031, 1034, 1034, 1037, 1039, 1040, 1043, 1043, 1045, 1049, 1049, 1049, 1049, 1049, 1050, 1050, 1052, 1057, 1063, 1063, 1064, 1068, 1069, 1073, 1074, 1075, 1078, 1078, 1079, 1084, 1084, 1085, 1086, 1090, 1096, 1097, 1099, 1100, 1102, 1103, 1103, 1105, 1108, 1111, 1113, 1115, 1116, 1121, 1124, 1125, 1127, 1128, 1128, 1129, 1129, 1131, 1134, 1135, 1144, 1145, 1145, 1147, 1147, 1148, 1150, 1150, 1151, 1152, 1153, 1155, 1156, 1156, 1157, 1166, 1166, 1168, 1174, 1177, 1177, 1177, 1186, 1186, 1187, 1187, 1188, 1191, 1194, 1194, 1194, 1196, 1202, 1204, 1205, 1209, 1209, 1209, 1210, 1213, 1216, 1217, 1218, 1218, 1219, 1220, 1224, 1226, 1227, 1228, 1230, 1231, 1232, 1234, 1235, 1235, 1237, 1238, 1240, 1243, 1249, 1249, 1252, 1259, 1262, 1262, 1263, 1263, 1264, 1264, 1270, 1272, 1273, 1276, 1278, 1282, 1282, 1284, 1284, 1294, 1295, 1295, 1296, 1298, 1299, 1301, 1308, 1308, 1309, 1311, 1311, 1315, 1316, 1319, 1320, 1321, 1321, 1322, 1322, 1324, 1328, 1328, 1328, 1328, 1328, 1333, 1336, 1342, 1342, 1346, 1347, 1348, 1349, 1351, 1353, 1355, 1359, 1369, 1372, 1372, 1373, 1376, 1378, 1380, 1381, 1385, 1385, 1392, 1394, 1395, 1399, 1399, 1399, 1405, 1406, 1408, 1408, 1409, 1409, 1412, 1412, 1413, 1414, 1423, 1425, 1426, 1426, 1427, 1431, 1433, 1434, 1435, 1435, 1444, 1447, 1448, 1449, 1452, 1453, 1460, 1460, 1461, 1467, 1470, 1472, 1472, 1473, 1473, 1473, 1474, 1476, 1476, 1480, 1482, 1482, 1483, 1495, 1497, 1497, 1498, 1499, 1500, 1501, 1502, 1503, 1506, 1508, 1510, 1511, 1513, 1517, 1519, 1521, 1528, 1528, 1541, 1541, 1548, 1549, 1550, 1551, 1553, 1554, 1555, 1556, 1562, 1563, 1563, 1564, 1564, 1564, 1567, 1575, 1576, 1576, 1577, 1580, 1583, 1583, 1589, 1592, 1592, 1595, 1599, 1600, 1600, 1601, 1601, 1602, 1608, 1608, 1610, 1615, 1621, 1621, 1624, 1624, 1624, 1625, 1627, 1628, 1631, 1632, 1633, 1634, 1635, 1635, 1640, 1643, 1644, 1645, 1645, 1648, 1650, 1650, 1655, 1656, 1659, 1661, 1661, 1662, 1662, 1665, 1665, 1671, 1675, 1677, 1680, 1682, 1683, 1684, 1686, 1686, 1687, 1687, 1688, 1688, 1697, 1702, 1704, 1708, 1708, 1710, 1711, 1714, 1714, 1716, 1720, 1722, 1722, 1724, 1724, 1726, 1728, 1732, 1734, 1737, 1738, 1739, 1739, 1743, 1745, 1745, 1746, 1752, 1752, 1752, 1753, 1755, 1755, 1759, 1762, 1763, 1764, 1764, 1764, 1767, 1767, 1767, 1768, 1772, 1774, 1776, 1776, 1778, 1779, 1780, 1782, 1784, 1786, 1789, 1793, 1793, 1794, 1794, 1795, 1800, 1801, 1807, 1807, 1809, 1810, 1815, 1815, 1815, 1817, 1822, 1822, 1827, 1828, 1830, 1832, 1834, 1843, 1843, 1843, 1852, 1854, 1855, 1855, 1857, 1858, 1858, 1862, 1862, 1867, 1869, 1869, 1870, 1870, 1871, 1871, 1874, 1876, 1877, 1881, 1882, 1886, 1886, 1886, 1886, 1886, 1887, 1887, 1891, 1899, 1899, 1899, 1904, 1905, 1911, 1913, 1914, 1914, 1915, 1915, 1921, 1921, 1923, 1929, 1929, 1930, 1930, 1935, 1938, 1941, 1941, 1942, 1943, 1943, 1945, 1948, 1952, 1953, 1954, 1958, 1961, 1962, 1964, 1967, 1967, 1968, 1970, 1970, 1971, 1976, 1982, 1982, 1983, 1985, 1987, 1987, 1989, 1990, 1991, 1992, 1993, 1993, 1994, 2001, 2001, 2002, 2004, 2004, 2007, 2010, 2011, 2013, 2014, 2014, 2014, 2016, 2019, 2023, 2023, 2024, 2024, 2025, 2031, 2031, 2031, 2032, 2038, 2042, 2047, 2050, 2053, 2054, 2055, 2055, 2056, 2058, 2059, 2061, 2062, 2063, 2064, 2065, 2066, 2069, 2071, 2072, 2072, 2075, 2077, 2093, 2093, 2093, 2094, 2094, 2094, 2095, 2096, 2101, 2101, 2110, 2111, 2114, 2116, 2119, 2119, 2120, 2123, 2124, 2124, 2131, 2132, 2132, 2134, 2134, 2146, 2153, 2156, 2158, 2158, 2160, 2161, 2165, 2165, 2165, 2165, 2165, 2166, 2166, 2172, 2179, 2179, 2180, 2183, 2186, 2187, 2189, 2193, 2193, 2195, 2196, 2202, 2203, 2203, 2213, 2214, 2215, 2216, 2219, 2219, 2223, 2223, 2227, 2231, 2232, 2235, 2236, 2236, 2236, 2237, 2238, 2243, 2247, 2260, 2271, 2272, 2272, 2273, 2277, 2277, 2278, 2280, 2280, 2281, 2282, 2282, 2283, 2283, 2284, 2290, 2296, 2302, 2302, 2303, 2303, 2307, 2317, 2318, 2319, 2319, 2325, 2325, 2325, 2330, 2332, 2334, 2334, 2337, 2338, 2340, 2341, 2342, 2343, 2344, 2346, 2349, 2351, 2351, 2353, 2358, 2361, 2361, 2364, 2364, 2365, 2365, 2367, 2372, 2372, 2372, 2388, 2389, 2390, 2391, 2392, 2394, 2395, 2401, 2401, 2401, 2402, 2411, 2411, 2412, 2417, 2424, 2424, 2425, 2426, 2429, 2429, 2431, 2434, 2435, 2436, 2438, 2438, 2440, 2447, 2449, 2451, 2452, 2463, 2468, 2474, 2475, 2479, 2479, 2480, 2481, 2482, 2482, 2485, 2487, 2487, 2488, 2488, 2489, 2493, 2494, 2495, 2496, 2499, 2499, 2500, 2502, 2502, 2503, 2508, 2512, 2514, 2521, 2522, 2525, 2525, 2526, 2527, 2527, 2529, 2539, 2540, 2540, 2541, 2545, 2545, 2546, 2548, 2549, 2551, 2551, 2552, 2556, 2556, 2557, 2561, 2561, 2565, 2568, 2574, 2580, 2581, 2581, 2582, 2582, 2590, 2591, 2596, 2597, 2599, 2600, 2604, 2604, 2604, 2609, 2612, 2615, 2617, 2618, 2623, 2627, 2628, 2629, 2630, 2630, 2631, 2631, 2632, 2633, 2637, 2639, 2643, 2643, 2646, 2653, 2654, 2657, 2657, 2664, 2667, 2672, 2673, 2674, 2679, 2679, 2689, 2690, 2690, 2691, 2692, 2692, 2693, 2694, 2704, 2705, 2713, 2714, 2717, 2717, 2719, 2724, 2724, 2726, 2728, 2730, 2731, 2736, 2736, 2736, 2738, 2740, 2740, 2740, 2747, 2748, 2749, 2750, 2752, 2752, 2754, 2759, 2760, 2767, 2767, 2773, 2774, 2775, 2776, 2778, 2778, 2779, 2780, 2780, 2781, 2781, 2782]
